(set-info :smt-lib-version 2.6)
(set-logic ALL)
(set-info :source |
Generated on: 2026-06-22
Generator: ppTransSmt github.com/CLEARSY/pptranspog
Application: Discharging a proof obligation generated by aTelierB from an anonymized B machine
Target solver: CVC5
Time limit: 1200.0
|)
(set-info :license "www.gnu.org/licenses/gpl-3.0.en.html")
(set-info :category "industrial")
(set-info :status unknown)

; Prelude
(declare-sort P 1)
(declare-fun mem0 (Int (P Int)) Bool)
(declare-sort C 2)

(declare-fun divB (Int Int) Int)
(assert (!
 (forall ((x Int) (y Int))
  (!
   (and
    (=> (and (<= 0 x) (< 0 y)) (= (divB x y) (div x y)))
    (=> (and (<= x 0) (< 0 y)) (= (divB x y) (- 0 (div (- 0 x) y))))
    (=> (and (<= 0 x) (< y 0)) (= (divB x y) (div x y)))
    (=> (and (<= x 0) (< y 0)) (= (divB x y) (div (- 0 x) (- 0 y))))
   )
   :pattern ((divB x y))
  )
 )
 :named |divB_axiom|))

(define-fun MinInt () Int (- 2147483648))
(define-fun MaxInt () Int 2147483647)
; Global declarations
(declare-fun g_s0_0 () (P Int))
(declare-fun g_s100_100 () Int)
(declare-fun g_s101_101 () Int)
(declare-fun g_s102_102 () Int)
(declare-fun g_s103_103 () Int)
(declare-fun g_s104_104 () Int)
(declare-fun g_s105_105 () Int)
(declare-fun g_s106_106 () Int)
(declare-fun g_s107_107 () Int)
(declare-fun g_s108_108 () Int)
(declare-fun g_s109_109 () Int)
(declare-fun g_s10_10 () (P Int))
(declare-fun g_s110_110 () Int)
(declare-fun g_s111_111 () Int)
(declare-fun g_s112_112 () Int)
(declare-fun g_s113_113 () Int)
(declare-fun g_s114_114 () Int)
(declare-fun g_s115_115 () Int)
(declare-fun g_s116_116 () Int)
(declare-fun g_s117_117 () Int)
(declare-fun g_s118_118 () Int)
(declare-fun g_s119_119 () (P (C Int Int)))
(declare-fun g_s11_11 () (P (C Bool Int)))
(declare-fun g_s120_120 () (P (C Int Int)))
(declare-fun g_s121_121 () (P (C Int Int)))
(declare-fun g_s122_122 () Int)
(declare-fun g_s123_123 () Int)
(declare-fun g_s124_124 () Int)
(declare-fun g_s125_125 () Int)
(declare-fun g_s126_126 () Int)
(declare-fun g_s127_127 () Int)
(declare-fun g_s128_128 () Int)
(declare-fun g_s129_129 () Int)
(declare-fun g_s12_12 () (P Int))
(declare-fun g_s130_130 () (P (C Int Int)))
(declare-fun g_s13_13 () Int)
(declare-fun g_s14_14 () Int)
(declare-fun g_s15_15 () (P Int))
(declare-fun g_s16_16 () Int)
(declare-fun g_s17_17 () Int)
(declare-fun g_s18_18 () (P Int))
(declare-fun g_s19_19 () Int)
(declare-fun g_s1_1 () (P Int))
(declare-fun g_s20_20 () Int)
(declare-fun g_s21_21 () Int)
(declare-fun g_s22_22 () Int)
(declare-fun g_s23_23 () Int)
(declare-fun g_s24_24 () Int)
(declare-fun g_s25_25 () Int)
(declare-fun g_s26_26 () Int)
(declare-fun g_s27_27 () Int)
(declare-fun g_s28_28 () Int)
(declare-fun g_s29_29 () Int)
(declare-fun g_s2_2 () (P Int))
(declare-fun g_s30_30 () Int)
(declare-fun g_s31_31 () Int)
(declare-fun g_s32_32 () Int)
(declare-fun g_s33_33 () Int)
(declare-fun g_s34_34 () Int)
(declare-fun g_s35_35 () Int)
(declare-fun g_s36_36 () Int)
(declare-fun g_s37_37 () Int)
(declare-fun g_s38_38 () Int)
(declare-fun g_s39_39 () Int)
(declare-fun g_s3_3 () Int)
(declare-fun g_s40_40 () Int)
(declare-fun g_s41_41 () Int)
(declare-fun g_s42_42 () Int)
(declare-fun g_s43_43 () Int)
(declare-fun g_s44_44 () Int)
(declare-fun g_s45_45 () Int)
(declare-fun g_s46_46 () Int)
(declare-fun g_s47_47 () Int)
(declare-fun g_s48_48 () Int)
(declare-fun g_s49_49 () Int)
(declare-fun g_s4_4 () Int)
(declare-fun g_s50_50 () Int)
(declare-fun g_s51_51 () Int)
(declare-fun g_s52_52 () Int)
(declare-fun g_s53_53 () Int)
(declare-fun g_s54_54 () Int)
(declare-fun g_s55_55 () Int)
(declare-fun g_s56_56 () Int)
(declare-fun g_s57_57 () Int)
(declare-fun g_s58_58 () Int)
(declare-fun g_s59_59 () Int)
(declare-fun g_s5_5 () Int)
(declare-fun g_s60_60 () Int)
(declare-fun g_s61_61 () Int)
(declare-fun g_s62_62 () Int)
(declare-fun g_s63_63 () Int)
(declare-fun g_s64_64 () Int)
(declare-fun g_s65_65 () Int)
(declare-fun g_s66_66 () Int)
(declare-fun g_s67_67 () Int)
(declare-fun g_s68_68 () Int)
(declare-fun g_s69_69 () Int)
(declare-fun g_s6_6 () Int)
(declare-fun g_s70_70 () Int)
(declare-fun g_s71_71 () Int)
(declare-fun g_s72_72 () Int)
(declare-fun g_s73_73 () Int)
(declare-fun g_s74_74 () Int)
(declare-fun g_s75_75 () Int)
(declare-fun g_s76_76 () Int)
(declare-fun g_s77_77 () Int)
(declare-fun g_s78_78 () Int)
(declare-fun g_s79_79 () Int)
(declare-fun g_s7_7 () Int)
(declare-fun g_s80_80 () Int)
(declare-fun g_s81_81 () Int)
(declare-fun g_s82_82 () Int)
(declare-fun g_s83_83 () Int)
(declare-fun g_s84_84 () Int)
(declare-fun g_s85_85 () Int)
(declare-fun g_s86_86 () Int)
(declare-fun g_s87_87 () Int)
(declare-fun g_s88_88 () Int)
(declare-fun g_s89_89 () Int)
(declare-fun g_s8_8 () Int)
(declare-fun g_s90_90 () Int)
(declare-fun g_s91_91 () Int)
(declare-fun g_s92_92 () Int)
(declare-fun g_s93_93 () Int)
(declare-fun g_s94_94 () Int)
(declare-fun g_s95_95 () Int)
(declare-fun g_s96_96 () Int)
(declare-fun g_s97_97 () Int)
(declare-fun g_s98_98 () Int)
(declare-fun g_s99_99 () Int)
(declare-fun g_s9_9 () Int)
(declare-fun mem2 ( Bool Int (P (C Bool Int))) Bool)
(declare-fun mem3 ( Int Int (P (C Int Int))) Bool)
; Defines
(define-fun |def_ctx_0| () Bool (forall ( (x_3 Int) ) (= (mem0 x_3 g_s0_0) (and (>= x_3 0) (<= x_3 4294967295)))))
(define-fun |def_ctx_1| () Bool (forall ( (x_4 Int) ) (= (mem0 x_4 g_s1_1) (and (>= x_4 0) (<= x_4 65535)))))
(define-fun |def_ctx_2| () Bool (forall ( (x_5 Int) ) (= (mem0 x_5 g_s2_2) (and (>= x_5 0) (<= x_5 255)))))
(define-fun |def_ctx_3| () Bool (mem0 g_s3_3 g_s0_0))
(define-fun |def_ctx_4| () Bool (mem0 g_s4_4 g_s1_1))
(define-fun |def_ctx_5| () Bool (mem0 g_s5_5 g_s2_2))
(define-fun |def_ctx_6| () Bool (mem0 g_s6_6 g_s2_2))
(define-fun |def_ctx_7| () Bool (mem0 g_s7_7 g_s2_2))
(define-fun |def_ctx_8| () Bool (mem0 g_s8_8 g_s2_2))
(define-fun |def_ctx_9| () Bool (mem0 g_s9_9 g_s2_2))
(define-fun |def_ctx_10| () Bool (= g_s3_3 4294967295))
(define-fun |def_ctx_11| () Bool (= g_s4_4 65535))
(define-fun |def_ctx_12| () Bool (= g_s5_5 255))
(define-fun |def_ctx_13| () Bool (and (>= g_s6_6 0) (<= g_s6_6 g_s5_5)))
(define-fun |def_ctx_14| () Bool (and (>= g_s7_7 0) (<= g_s7_7 g_s5_5)))
(define-fun |def_ctx_15| () Bool (not (= g_s6_6 g_s7_7)))
(define-fun |def_ctx_16| () Bool (forall ( (x_6 Int) ) (= (mem0 x_6 g_s10_10) (or  (= x_6 g_s6_6) (= x_6 g_s7_7)))))
(define-fun |def_ctx_17| () Bool (forall ( (x_7 Int) (x_8 Bool) ) (= (mem2 x_8 x_7 g_s11_11) (or  (and (= x_8 true) (= x_7 g_s6_6)) (and (= x_8 false) (= x_7 g_s7_7))))))
(define-fun |def_seext_0| () Bool (and (forall ( (x_9 Int) (x_10 Bool) ) (=> (mem2 x_10 x_9 g_s11_11) (and true (mem0 x_9 g_s2_2)))) (forall ( (x_11 Bool) (x_12 Int) (x_13 Int) ) (=> (and  (mem2 x_11 x_12 g_s11_11) (mem2 x_11 x_13 g_s11_11)) (= x_12 x_13)))))
(define-fun |def_seext_1| () Bool (and (forall ( (x_14 Int) (x_15 Bool) ) (=> (mem2 x_15 x_14 g_s11_11) (and true (mem0 x_14 g_s1_1)))) (forall ( (x_16 Bool) (x_17 Int) (x_18 Int) ) (=> (and  (mem2 x_16 x_17 g_s11_11) (mem2 x_16 x_18 g_s11_11)) (= x_17 x_18)))))
(define-fun |def_seext_2| () Bool (and (forall ( (x_19 Int) (x_20 Bool) ) (=> (mem2 x_20 x_19 g_s11_11) (and true (mem0 x_19 g_s0_0)))) (forall ( (x_21 Bool) (x_22 Int) (x_23 Int) ) (=> (and  (mem2 x_21 x_22 g_s11_11) (mem2 x_21 x_23 g_s11_11)) (= x_22 x_23)))))
(define-fun |def_aprp_0| () Bool (and (forall ( (x_24 Int) ) (= (mem0 x_24 g_s12_12) (or  (= x_24 g_s13_13) (= x_24 g_s14_14)))) (distinct g_s13_13 g_s14_14)))
(define-fun |def_aprp_1| () Bool (and (forall ( (x_25 Int) ) (= (mem0 x_25 g_s15_15) (or  (= x_25 g_s16_16) (= x_25 g_s17_17)))) (distinct g_s16_16 g_s17_17)))
(define-fun |def_aprp_2| () Bool (and (forall ( (x_26 Int) ) (= (mem0 x_26 g_s18_18) (or  (= x_26 g_s19_19) (= x_26 g_s20_20) (= x_26 g_s21_21) (= x_26 g_s22_22) (= x_26 g_s23_23) (= x_26 g_s24_24) (= x_26 g_s25_25) (= x_26 g_s26_26) (= x_26 g_s27_27)))) (distinct g_s19_19 g_s20_20 g_s21_21 g_s22_22 g_s23_23 g_s24_24 g_s25_25 g_s26_26 g_s27_27)))
(define-fun |def_aprp_3| () Bool (= g_s28_28 3))
(define-fun |def_aprp_4| () Bool (= g_s29_29 3))
(define-fun |def_aprp_5| () Bool (= g_s30_30 10))
(define-fun |def_aprp_6| () Bool (= g_s31_31 5))
(define-fun |def_aprp_7| () Bool (= g_s32_32 5))
(define-fun |def_aprp_8| () Bool (= g_s33_33 5))
(define-fun |def_aprp_9| () Bool (= g_s34_34 5))
(define-fun |def_aprp_10| () Bool (= g_s35_35 5))
(define-fun |def_aprp_11| () Bool (= g_s36_36 10))
(define-fun |def_aprp_12| () Bool (= g_s37_37 2))
(define-fun |def_aprp_13| () Bool (= g_s38_38 (divB (* (* 2 g_s39_39) 200) 1000)))
(define-fun |def_aprp_14| () Bool (= g_s40_40 (divB (* (* 2 g_s39_39) 240) 1000)))
(define-fun |def_aprp_15| () Bool (= g_s41_41 1048576))
(define-fun |def_aprp_16| () Bool (= g_s42_42 1114112))
(define-fun |def_aprp_17| () Bool (= g_s43_43 42))
(define-fun |def_aprp_18| () Bool (= g_s44_44 (+ 42 g_s28_28)))
(define-fun |def_aprp_19| () Bool (= g_s45_45 (+ 42 g_s46_46)))
(define-fun |def_aprp_20| () Bool (= g_s47_47 (+ 42 g_s29_29)))
(define-fun |def_aprp_21| () Bool (= g_s48_48 (divB (divB (* g_s39_39 50) 1000) 10)))
(define-fun |def_aprp_22| () Bool (= g_s49_49 (divB (* (divB (* g_s39_39 50) 1000) 25) 10)))
(define-fun |def_aprp_23| () Bool (= g_s50_50 2))
(define-fun |def_aprp_24| () Bool (= g_s51_51 720896))
(define-fun |def_aprp_25| () Bool (= g_s52_52 786432))
(define-fun |def_aprp_26| () Bool (= g_s53_53 851968))
(define-fun |def_aprp_27| () Bool (= g_s54_54 917504))
(define-fun |def_aprp_28| () Bool (= g_s55_55 983040))
(define-fun |def_aprp_29| () Bool (= g_s56_56 4))
(define-fun |def_aprp_30| () Bool (= g_s57_57 3))
(define-fun |def_aprp_31| () Bool (= g_s58_58 244))
(define-fun |def_aprp_32| () Bool (= g_s59_59 (+ 244 g_s30_30)))
(define-fun |def_aprp_33| () Bool (= g_s60_60 244))
(define-fun |def_aprp_34| () Bool (= g_s61_61 (+ 244 g_s31_31)))
(define-fun |def_aprp_35| () Bool (= g_s62_62 (+ 244 g_s32_32)))
(define-fun |def_aprp_36| () Bool (= g_s63_63 (+ 244 g_s33_33)))
(define-fun |def_aprp_37| () Bool (= g_s64_64 (+ 244 g_s34_34)))
(define-fun |def_aprp_38| () Bool (= g_s65_65 (+ 244 g_s35_35)))
(define-fun |def_aprp_39| () Bool (= g_s66_66 (+ 244 g_s36_36)))
(define-fun |def_aprp_40| () Bool (= g_s67_67 393216))
(define-fun |def_aprp_41| () Bool (= g_s68_68 458752))
(define-fun |def_aprp_42| () Bool (= g_s69_69 524288))
(define-fun |def_aprp_43| () Bool (= g_s70_70 285802496))
(define-fun |def_aprp_44| () Bool (= g_s71_71 285868032))
(define-fun |def_aprp_45| () Bool (= g_s72_72 554237952))
(define-fun |def_aprp_46| () Bool (= g_s73_73 554303488))
(define-fun |def_aprp_47| () Bool (= g_s74_74 302579712))
(define-fun |def_aprp_48| () Bool (= g_s75_75 302645248))
(define-fun |def_aprp_49| () Bool (= g_s76_76 571015168))
(define-fun |def_aprp_50| () Bool (= g_s77_77 571080704))
(define-fun |def_aprp_51| () Bool (= g_s78_78 319356928))
(define-fun |def_aprp_52| () Bool (= g_s79_79 319422464))
(define-fun |def_aprp_53| () Bool (= g_s80_80 587792384))
(define-fun |def_aprp_54| () Bool (= g_s81_81 587857920))
(define-fun |def_aprp_55| () Bool (= g_s82_82 336134144))
(define-fun |def_aprp_56| () Bool (= g_s83_83 336199680))
(define-fun |def_aprp_57| () Bool (= g_s84_84 604569600))
(define-fun |def_aprp_58| () Bool (= g_s85_85 604635136))
(define-fun |def_aprp_59| () Bool (= g_s86_86 6))
(define-fun |def_aprp_60| () Bool (= g_s87_87 (- 6 1)))
(define-fun |def_aprp_61| () Bool (= g_s88_88 3))
(define-fun |def_aprp_62| () Bool (= g_s89_89 (- 3 1)))
(define-fun |def_aprp_63| () Bool (= g_s90_90 (* 6 3)))
(define-fun |def_aprp_64| () Bool (= g_s91_91 (- (* 6 3) 1)))
(define-fun |def_aprp_65| () Bool (= g_s92_92 7710))
(define-fun |def_aprp_66| () Bool (= g_s93_93 7725))
(define-fun |def_aprp_67| () Bool (= g_s94_94 3))
(define-fun |def_aprp_68| () Bool (= g_s95_95 (- 3 1)))
(define-fun |def_aprp_69| () Bool (= g_s96_96 (+ 5698 g_s37_37)))
(define-fun |def_aprp_70| () Bool (= g_s97_97 5698))
(define-fun |def_aprp_71| () Bool (= g_s98_98 10))
(define-fun |def_aprp_72| () Bool (= g_s99_99 90))
(define-fun |def_aprp_73| () Bool (= g_s100_100 10))
(define-fun |def_aprp_74| () Bool (= g_s101_101 150))
(define-fun |def_aprp_75| () Bool (= g_s102_102 9))
(define-fun |def_aprp_76| () Bool (= g_s103_103 (- 9 1)))
(define-fun |def_aprp_77| () Bool (= g_s104_104 22))
(define-fun |def_aprp_78| () Bool (= g_s105_105 (- 22 1)))
(define-fun |def_aprp_79| () Bool (= g_s106_106 14))
(define-fun |def_aprp_80| () Bool (= g_s107_107 (- 14 1)))
(define-fun |def_aprp_81| () Bool (= g_s108_108 1))
(define-fun |def_aprp_82| () Bool (= g_s109_109 (- 1 1)))
(define-fun |def_aprp_83| () Bool (= g_s110_110 g_s104_104))
(define-fun |def_aprp_84| () Bool (= g_s111_111 (- 8 1)))
(define-fun |def_aprp_85| () Bool (= g_s112_112 (- 8 1)))
(define-fun |def_aprp_86| () Bool (= g_s113_113 1179648))
(define-fun |def_aprp_87| () Bool (mem0 g_s38_38 g_s1_1))
(define-fun |def_aprp_88| () Bool (mem0 g_s40_40 g_s1_1))
(define-fun |def_aprp_89| () Bool (mem0 g_s41_41 g_s0_0))
(define-fun |def_aprp_90| () Bool (mem0 g_s42_42 g_s0_0))
(define-fun |def_aprp_91| () Bool (<= 0 g_s28_28))
(define-fun |def_aprp_92| () Bool (<= 2 g_s28_28))
(define-fun |def_aprp_93| () Bool (<= 0 g_s46_46))
(define-fun |def_aprp_94| () Bool (<= 2 g_s46_46))
(define-fun |def_aprp_95| () Bool (<= 0 g_s29_29))
(define-fun |def_aprp_96| () Bool (<= 2 g_s29_29))
(define-fun |def_aprp_97| () Bool (<= g_s28_28 g_s29_29))
(define-fun |def_aprp_98| () Bool (mem0 g_s43_43 g_s2_2))
(define-fun |def_aprp_99| () Bool (mem0 g_s44_44 g_s2_2))
(define-fun |def_aprp_100| () Bool (= g_s44_44 (+ g_s43_43 g_s28_28)))
(define-fun |def_aprp_101| () Bool (mem0 g_s45_45 g_s2_2))
(define-fun |def_aprp_102| () Bool (= g_s45_45 (+ g_s43_43 g_s46_46)))
(define-fun |def_aprp_103| () Bool (mem0 g_s47_47 g_s2_2))
(define-fun |def_aprp_104| () Bool (= g_s47_47 (+ g_s43_43 g_s29_29)))
(define-fun |def_aprp_105| () Bool (mem0 g_s48_48 g_s1_1))
(define-fun |def_aprp_106| () Bool (mem0 g_s49_49 g_s1_1))
(define-fun |def_aprp_107| () Bool (mem0 g_s50_50 g_s2_2))
(define-fun |def_aprp_108| () Bool (<= g_s48_48 g_s49_49))
(define-fun |def_aprp_109| () Bool (mem0 g_s51_51 g_s0_0))
(define-fun |def_aprp_110| () Bool (mem0 g_s52_52 g_s0_0))
(define-fun |def_aprp_111| () Bool (mem0 g_s53_53 g_s0_0))
(define-fun |def_aprp_112| () Bool (mem0 g_s54_54 g_s0_0))
(define-fun |def_aprp_113| () Bool (mem0 g_s55_55 g_s0_0))
(define-fun |def_aprp_114| () Bool (mem0 g_s56_56 g_s2_2))
(define-fun |def_aprp_115| () Bool (<= 2 g_s56_56))
(define-fun |def_aprp_116| () Bool (mem0 g_s57_57 g_s2_2))
(define-fun |def_aprp_117| () Bool (= g_s57_57 (- g_s56_56 1)))
(define-fun |def_aprp_118| () Bool (<= 3 g_s57_57))
(define-fun |def_aprp_119| () Bool (< 0 g_s30_30))
(define-fun |def_aprp_120| () Bool (< 0 g_s31_31))
(define-fun |def_aprp_121| () Bool (< 0 g_s32_32))
(define-fun |def_aprp_122| () Bool (< 0 g_s114_114))
(define-fun |def_aprp_123| () Bool (< 0 g_s33_33))
(define-fun |def_aprp_124| () Bool (< 0 g_s34_34))
(define-fun |def_aprp_125| () Bool (< 0 g_s35_35))
(define-fun |def_aprp_126| () Bool (< 0 g_s36_36))
(define-fun |def_aprp_127| () Bool (mem0 g_s58_58 g_s2_2))
(define-fun |def_aprp_128| () Bool (mem0 g_s59_59 g_s2_2))
(define-fun |def_aprp_129| () Bool (= g_s59_59 (+ g_s58_58 g_s30_30)))
(define-fun |def_aprp_130| () Bool (mem0 g_s60_60 g_s2_2))
(define-fun |def_aprp_131| () Bool (mem0 g_s61_61 g_s2_2))
(define-fun |def_aprp_132| () Bool (= g_s61_61 (+ g_s60_60 g_s31_31)))
(define-fun |def_aprp_133| () Bool (mem0 g_s62_62 g_s2_2))
(define-fun |def_aprp_134| () Bool (= g_s62_62 (+ g_s60_60 g_s32_32)))
(define-fun |def_aprp_135| () Bool (mem0 g_s115_115 g_s2_2))
(define-fun |def_aprp_136| () Bool (= g_s115_115 (+ g_s60_60 g_s114_114)))
(define-fun |def_aprp_137| () Bool (mem0 g_s63_63 g_s2_2))
(define-fun |def_aprp_138| () Bool (= g_s63_63 (+ g_s60_60 g_s33_33)))
(define-fun |def_aprp_139| () Bool (mem0 g_s64_64 g_s2_2))
(define-fun |def_aprp_140| () Bool (= g_s64_64 (+ g_s60_60 g_s34_34)))
(define-fun |def_aprp_141| () Bool (mem0 g_s65_65 g_s2_2))
(define-fun |def_aprp_142| () Bool (= g_s65_65 (+ g_s60_60 g_s35_35)))
(define-fun |def_aprp_143| () Bool (mem0 g_s66_66 g_s2_2))
(define-fun |def_aprp_144| () Bool (= g_s66_66 (+ g_s60_60 g_s36_36)))
(define-fun |def_aprp_145| () Bool (mem0 g_s67_67 g_s0_0))
(define-fun |def_aprp_146| () Bool (mem0 g_s68_68 g_s0_0))
(define-fun |def_aprp_147| () Bool (mem0 g_s69_69 g_s0_0))
(define-fun |def_aprp_148| () Bool (mem0 g_s70_70 g_s0_0))
(define-fun |def_aprp_149| () Bool (mem0 g_s71_71 g_s0_0))
(define-fun |def_aprp_150| () Bool (mem0 g_s72_72 g_s0_0))
(define-fun |def_aprp_151| () Bool (mem0 g_s73_73 g_s0_0))
(define-fun |def_aprp_152| () Bool (mem0 g_s74_74 g_s0_0))
(define-fun |def_aprp_153| () Bool (mem0 g_s75_75 g_s0_0))
(define-fun |def_aprp_154| () Bool (mem0 g_s76_76 g_s0_0))
(define-fun |def_aprp_155| () Bool (mem0 g_s77_77 g_s0_0))
(define-fun |def_aprp_156| () Bool (mem0 g_s78_78 g_s0_0))
(define-fun |def_aprp_157| () Bool (mem0 g_s79_79 g_s0_0))
(define-fun |def_aprp_158| () Bool (mem0 g_s80_80 g_s0_0))
(define-fun |def_aprp_159| () Bool (mem0 g_s81_81 g_s0_0))
(define-fun |def_aprp_160| () Bool (mem0 g_s82_82 g_s0_0))
(define-fun |def_aprp_161| () Bool (mem0 g_s83_83 g_s0_0))
(define-fun |def_aprp_162| () Bool (mem0 g_s84_84 g_s0_0))
(define-fun |def_aprp_163| () Bool (mem0 g_s85_85 g_s0_0))
(define-fun |def_aprp_164| () Bool (mem0 g_s86_86 g_s2_2))
(define-fun |def_aprp_165| () Bool (<= 0 g_s86_86))
(define-fun |def_aprp_166| () Bool (<= 2 g_s86_86))
(define-fun |def_aprp_167| () Bool (mem0 g_s87_87 g_s2_2))
(define-fun |def_aprp_168| () Bool (= g_s87_87 (- g_s86_86 1)))
(define-fun |def_aprp_169| () Bool (forall ( (x_27 Int) ) (= (and (>= x_27 0) (<= x_27 g_s87_87)) (or  (= x_27 0) (= x_27 1) (= x_27 2) (= x_27 3) (= x_27 4) (= x_27 5)))))
(define-fun |def_aprp_170| () Bool (mem0 g_s88_88 g_s2_2))
(define-fun |def_aprp_171| () Bool (mem0 g_s89_89 g_s2_2))
(define-fun |def_aprp_172| () Bool (= g_s89_89 (- g_s88_88 1)))
(define-fun |def_aprp_173| () Bool (mem0 g_s116_116 g_s2_2))
(define-fun |def_aprp_174| () Bool (mem0 g_s117_117 g_s2_2))
(define-fun |def_aprp_175| () Bool (= g_s117_117 (- g_s116_116 1)))
(define-fun |def_aprp_176| () Bool (mem0 g_s90_90 g_s2_2))
(define-fun |def_aprp_177| () Bool (mem0 g_s91_91 g_s2_2))
(define-fun |def_aprp_178| () Bool (= g_s91_91 (- g_s90_90 1)))
(define-fun |def_aprp_179| () Bool (mem0 g_s118_118 g_s1_1))
(define-fun |def_aprp_180| () Bool (exists ( (x_28 (P (C Int Int))) ) (and (forall ( (x_29 Int) (x_30 Int) ) (= (mem3 x_30 x_29 x_28) (mem3 x_30 x_29 g_s119_119))) (forall ( (x_31 Int) (x_32 Int) (x_33 Int) ) (=> (and  (mem3 x_31 x_32 x_28) (mem3 x_31 x_33 x_28)) (= x_32 x_33))) (forall ( (x_34 Int) ) (= (and (>= x_34 0) (<= x_34 5)) (exists ( (x_35 Int) ) (mem3 x_34 x_35 x_28)))) (forall ( (x_36 Int) ) (=> (exists ( (x_37 Int) ) (mem3 x_37 x_36 x_28)) (mem0 x_36 g_s2_2))))))
(define-fun |def_aprp_181| () Bool (exists ( (x_38 (P (C Int Int))) ) (and (forall ( (x_39 Int) (x_40 Int) ) (= (mem3 x_40 x_39 x_38) (mem3 x_40 x_39 g_s120_120))) (forall ( (x_41 Int) (x_42 Int) (x_43 Int) ) (=> (and  (mem3 x_41 x_42 x_38) (mem3 x_41 x_43 x_38)) (= x_42 x_43))) (forall ( (x_44 Int) ) (= (and (>= x_44 0) (<= x_44 5)) (exists ( (x_45 Int) ) (mem3 x_44 x_45 x_38)))) (forall ( (x_46 Int) ) (=> (exists ( (x_47 Int) ) (mem3 x_47 x_46 x_38)) (mem0 x_46 g_s1_1))))))
(define-fun |def_aprp_182| () Bool (exists ( (x_48 (P (C Int Int))) ) (and (forall ( (x_49 Int) (x_50 Int) ) (= (mem3 x_50 x_49 x_48) (mem3 x_50 x_49 g_s121_121))) (forall ( (x_51 Int) (x_52 Int) (x_53 Int) ) (=> (and  (mem3 x_51 x_52 x_48) (mem3 x_51 x_53 x_48)) (= x_52 x_53))) (forall ( (x_54 Int) ) (= (and (>= x_54 0) (<= x_54 5)) (exists ( (x_55 Int) ) (mem3 x_54 x_55 x_48)))) (forall ( (x_56 Int) ) (=> (exists ( (x_57 Int) ) (mem3 x_57 x_56 x_48)) (mem0 x_56 g_s1_1))))))
(define-fun |def_aprp_183| () Bool (mem0 g_s92_92 g_s1_1))
(define-fun |def_aprp_184| () Bool (mem0 g_s93_93 g_s1_1))
(define-fun |def_aprp_185| () Bool (not (= g_s92_92 g_s93_93)))
(define-fun |def_aprp_186| () Bool (mem0 g_s96_96 g_s1_1))
(define-fun |def_aprp_187| () Bool (mem0 g_s97_97 g_s1_1))
(define-fun |def_aprp_188| () Bool (<= 0 g_s37_37))
(define-fun |def_aprp_189| () Bool (= g_s37_37 (- g_s96_96 g_s97_97)))
(define-fun |def_aprp_190| () Bool (mem0 g_s98_98 g_s1_1))
(define-fun |def_aprp_191| () Bool (mem0 g_s99_99 g_s1_1))
(define-fun |def_aprp_192| () Bool (mem0 g_s100_100 g_s1_1))
(define-fun |def_aprp_193| () Bool (mem0 g_s101_101 g_s1_1))
(define-fun |def_aprp_194| () Bool (mem0 g_s94_94 g_s2_2))
(define-fun |def_aprp_195| () Bool (mem0 g_s95_95 g_s2_2))
(define-fun |def_aprp_196| () Bool (= g_s95_95 (- g_s94_94 1)))
(define-fun |def_aprp_197| () Bool (= g_s90_90 (* g_s86_86 g_s94_94)))
(define-fun |def_aprp_198| () Bool (<= 1 g_s94_94))
(define-fun |def_aprp_199| () Bool (< g_s94_94 g_s5_5))
(define-fun |def_aprp_200| () Bool (mem0 g_s102_102 g_s0_0))
(define-fun |def_aprp_201| () Bool (mem0 g_s103_103 g_s0_0))
(define-fun |def_aprp_202| () Bool (mem0 g_s104_104 g_s0_0))
(define-fun |def_aprp_203| () Bool (mem0 g_s105_105 g_s0_0))
(define-fun |def_aprp_204| () Bool (mem0 g_s106_106 g_s0_0))
(define-fun |def_aprp_205| () Bool (mem0 g_s107_107 g_s0_0))
(define-fun |def_aprp_206| () Bool (= g_s107_107 (- g_s106_106 1)))
(define-fun |def_aprp_207| () Bool (mem0 g_s108_108 g_s0_0))
(define-fun |def_aprp_208| () Bool (mem0 g_s109_109 g_s0_0))
(define-fun |def_aprp_209| () Bool (= g_s109_109 (- g_s108_108 1)))
(define-fun |def_aprp_210| () Bool (mem0 g_s110_110 g_s1_1))
(define-fun |def_aprp_211| () Bool (mem0 g_s122_122 g_s1_1))
(define-fun |def_aprp_212| () Bool (= g_s122_122 (- g_s110_110 1)))
(define-fun |def_aprp_213| () Bool (<= g_s122_122 g_s105_105))
(define-fun |def_aprp_214| () Bool (and (>= g_s122_122 0) (<= g_s122_122 255)))
(define-fun |def_aprp_215| () Bool (<= g_s105_105 g_s110_110))
(define-fun |def_aprp_216| () Bool (mem0 g_s123_123 g_s1_1))
(define-fun |def_aprp_217| () Bool (mem0 g_s124_124 g_s1_1))
(define-fun |def_aprp_218| () Bool (mem0 g_s125_125 g_s1_1))
(define-fun |def_aprp_219| () Bool (mem0 g_s126_126 g_s1_1))
(define-fun |def_aprp_220| () Bool (< g_s123_123 g_s122_122))
(define-fun |def_aprp_221| () Bool (< g_s126_126 g_s123_123))
(define-fun |def_aprp_222| () Bool (and (>= g_s124_124 0) (<= g_s124_124 g_s122_122)))
(define-fun |def_aprp_223| () Bool (and (>= g_s125_125 0) (<= g_s125_125 g_s122_122)))
(define-fun |def_aprp_224| () Bool (mem0 g_s127_127 g_s1_1))
(define-fun |def_aprp_225| () Bool (< 0 g_s127_127))
(define-fun |def_aprp_226| () Bool (< g_s127_127 g_s123_123))
(define-fun |def_aprp_227| () Bool (mem0 g_s128_128 g_s2_2))
(define-fun |def_aprp_228| () Bool (< 0 g_s128_128))
(define-fun |def_aprp_229| () Bool (< g_s128_128 g_s123_123))
(define-fun |def_aprp_230| () Bool (mem0 g_s129_129 g_s2_2))
(define-fun |def_aprp_231| () Bool (< 0 g_s129_129))
(define-fun |def_aprp_232| () Bool (< g_s129_129 g_s123_123))
(define-fun |def_aprp_233| () Bool (mem0 g_s112_112 g_s2_2))
(define-fun |def_aprp_234| () Bool (<= 4 g_s112_112))
(define-fun |def_aprp_235| () Bool (mem0 g_s111_111 g_s2_2))
(define-fun |def_aprp_236| () Bool (<= 7 g_s111_111))
(define-fun |def_aprp_237| () Bool (mem0 g_s113_113 g_s0_0))
(define-fun |def_aprp_238| () Bool (mem0 g_s39_39 g_s1_1))
(define-fun |def_aprp_239| () Bool (exists ( (x_58 (P (C Int Int))) ) (and (forall ( (x_59 Int) (x_60 Int) ) (= (mem3 x_60 x_59 x_58) (mem3 x_60 x_59 g_s130_130))) (forall ( (x_61 Int) (x_62 Int) (x_63 Int) ) (=> (and  (mem3 x_61 x_62 x_58) (mem3 x_61 x_63 x_58)) (= x_62 x_63))) (forall ( (x_64 Int) ) (= (and (>= x_64 0) (<= x_64 5)) (exists ( (x_65 Int) ) (mem3 x_64 x_65 x_58)))) (forall ( (x_66 Int) ) (=> (exists ( (x_67 Int) ) (mem3 x_67 x_66 x_58)) (mem0 x_66 g_s1_1))))))
(define-fun |def_aprp_240| () Bool (<= (+ g_s126_126 19) g_s105_105))
(define-fun |def_aprp_241| () Bool (<= g_s124_124 g_s103_103))
(define-fun |def_aprp_242| () Bool (<= g_s125_125 g_s103_103))
(define-fun |def_aprp_243| () Bool (<= 2 g_s128_128))
(define-fun |def_aprp_244| () Bool (<= 2 g_s129_129))
(define-fun |def_aprp_245| () Bool (<= 2 g_s127_127))
(define-fun |def_aprp_246| () Bool (<= g_s128_128 g_s127_127))
(define-fun |def_aprp_247| () Bool (<= g_s129_129 g_s128_128))
(define-fun |def_aprp_248| () Bool (<= g_s129_129 g_s127_127))
(define-fun |def_imlprp_0| () Bool (= g_s86_86 6))
(define-fun |def_imlprp_1| () Bool (= g_s87_87 5))
(define-fun |def_imlprp_2| () Bool (= g_s88_88 3))
(define-fun |def_imlprp_3| () Bool (= g_s89_89 2))
(define-fun |def_imlprp_4| () Bool (= g_s90_90 18))
(define-fun |def_imlprp_5| () Bool (= g_s91_91 17))
(define-fun |def_imlprp_6| () Bool (= g_s116_116 2))
(define-fun |def_imlprp_7| () Bool (= g_s117_117 1))
(define-fun |def_imlprp_8| () Bool (= g_s118_118 7905))
(define-fun |def_imlprp_9| () Bool (= g_s92_92 7710))
(define-fun |def_imlprp_10| () Bool (= g_s93_93 7725))
(define-fun |def_imlprp_11| () Bool (= g_s96_96 5700))
(define-fun |def_imlprp_12| () Bool (= g_s97_97 5698))
(define-fun |def_imlprp_13| () Bool (= g_s98_98 10))
(define-fun |def_imlprp_14| () Bool (= g_s99_99 90))
(define-fun |def_imlprp_15| () Bool (= g_s100_100 10))
(define-fun |def_imlprp_16| () Bool (= g_s101_101 150))
(define-fun |def_imlprp_17| () Bool (= g_s94_94 3))
(define-fun |def_imlprp_18| () Bool (= g_s95_95 2))
(define-fun |def_imlprp_19| () Bool (= g_s102_102 9))
(define-fun |def_imlprp_20| () Bool (= g_s103_103 8))
(define-fun |def_imlprp_21| () Bool (= g_s104_104 22))
(define-fun |def_imlprp_22| () Bool (= g_s105_105 21))
(define-fun |def_imlprp_23| () Bool (= g_s106_106 14))
(define-fun |def_imlprp_24| () Bool (= g_s107_107 13))
(define-fun |def_imlprp_25| () Bool (= g_s108_108 1))
(define-fun |def_imlprp_26| () Bool (= g_s109_109 0))
(define-fun |def_imlprp_27| () Bool (= g_s110_110 22))
(define-fun |def_imlprp_28| () Bool (= g_s122_122 21))
(define-fun |def_imlprp_29| () Bool (= g_s123_123 8))
(define-fun |def_imlprp_30| () Bool (= g_s124_124 0))
(define-fun |def_imlprp_31| () Bool (= g_s125_125 1))
(define-fun |def_imlprp_32| () Bool (= g_s126_126 2))
(define-fun |def_imlprp_33| () Bool (= g_s127_127 6))
(define-fun |def_imlprp_34| () Bool (= g_s128_128 4))
(define-fun |def_imlprp_35| () Bool (= g_s129_129 2))
(define-fun |def_imlprp_36| () Bool (= g_s56_56 4))
(define-fun |def_imlprp_37| () Bool (= g_s57_57 3))
(define-fun |def_imlprp_38| () Bool (= g_s58_58 244))
(define-fun |def_imlprp_39| () Bool (= g_s59_59 254))
(define-fun |def_imlprp_40| () Bool (= g_s60_60 244))
(define-fun |def_imlprp_41| () Bool (= g_s61_61 249))
(define-fun |def_imlprp_42| () Bool (= g_s62_62 249))
(define-fun |def_imlprp_43| () Bool (= g_s115_115 249))
(define-fun |def_imlprp_44| () Bool (= g_s63_63 249))
(define-fun |def_imlprp_45| () Bool (= g_s64_64 249))
(define-fun |def_imlprp_46| () Bool (= g_s65_65 249))
(define-fun |def_imlprp_47| () Bool (= g_s66_66 254))
(define-fun |def_imlprp_48| () Bool (= g_s67_67 393216))
(define-fun |def_imlprp_49| () Bool (= g_s68_68 458752))
(define-fun |def_imlprp_50| () Bool (= g_s69_69 524288))
(define-fun |def_imlprp_51| () Bool (= g_s70_70 285802496))
(define-fun |def_imlprp_52| () Bool (= g_s71_71 285868032))
(define-fun |def_imlprp_53| () Bool (= g_s72_72 554237952))
(define-fun |def_imlprp_54| () Bool (= g_s73_73 554303488))
(define-fun |def_imlprp_55| () Bool (= g_s74_74 302579712))
(define-fun |def_imlprp_56| () Bool (= g_s75_75 302645248))
(define-fun |def_imlprp_57| () Bool (= g_s76_76 571015168))
(define-fun |def_imlprp_58| () Bool (= g_s77_77 571080704))
(define-fun |def_imlprp_59| () Bool (= g_s78_78 319356928))
(define-fun |def_imlprp_60| () Bool (= g_s79_79 319422464))
(define-fun |def_imlprp_61| () Bool (= g_s80_80 587792384))
(define-fun |def_imlprp_62| () Bool (= g_s81_81 587857920))
(define-fun |def_imlprp_63| () Bool (= g_s82_82 336134144))
(define-fun |def_imlprp_64| () Bool (= g_s83_83 336199680))
(define-fun |def_imlprp_65| () Bool (= g_s84_84 604569600))
(define-fun |def_imlprp_66| () Bool (= g_s85_85 604635136))
(define-fun |def_imlprp_67| () Bool (= g_s112_112 7))
(define-fun |def_imlprp_68| () Bool (= g_s111_111 7))
(define-fun |def_imlprp_69| () Bool (= g_s43_43 42))
(define-fun |def_imlprp_70| () Bool (= g_s44_44 45))
(define-fun |def_imlprp_71| () Bool (= g_s45_45 45))
(define-fun |def_imlprp_72| () Bool (= g_s47_47 45))
(define-fun |def_imlprp_73| () Bool (= g_s48_48 150))
(define-fun |def_imlprp_74| () Bool (= g_s49_49 3750))
(define-fun |def_imlprp_75| () Bool (= g_s50_50 2))
(define-fun |def_imlprp_76| () Bool (= g_s51_51 720896))
(define-fun |def_imlprp_77| () Bool (= g_s52_52 786432))
(define-fun |def_imlprp_78| () Bool (= g_s53_53 851968))
(define-fun |def_imlprp_79| () Bool (= g_s54_54 917504))
(define-fun |def_imlprp_80| () Bool (= g_s55_55 983040))
(define-fun |def_imlprp_81| () Bool (= g_s38_38 12000))
(define-fun |def_imlprp_82| () Bool (= g_s40_40 14400))
(define-fun |def_imlprp_83| () Bool (= g_s41_41 1048576))
(define-fun |def_imlprp_84| () Bool (= g_s42_42 1114112))
(define-fun |def_imlprp_85| () Bool (= g_s113_113 1179648))
(define-fun |def_imlprp_86| () Bool (= g_s39_39 30000))
(define-fun |def_imlprp_87| () Bool (forall ( (x_68 Int) (x_69 Int) ) (= (mem3 x_69 x_68 g_s130_130) (or  (and (= x_69 0) (= x_68 57302)) (and (= x_69 1) (= x_68 47279)) (and (= x_69 2) (= x_68 43583)) (and (= x_69 3) (= x_68 13862)) (and (= x_69 4) (= x_68 38410)) (and (= x_69 5) (= x_68 60362))))))
(define-fun |def_imlprp_88| () Bool (forall ( (x_70 Int) (x_71 Int) ) (= (mem3 x_71 x_70 g_s119_119) (or  (and (= x_71 0) (= x_70 210)) (and (= x_71 1) (= x_70 220)) (and (= x_71 2) (= x_70 230)) (and (= x_71 3) (= x_70 240)) (and (= x_71 4) (= x_70 221)) (and (= x_71 5) (= x_70 231))))))
(define-fun |def_imlprp_89| () Bool (forall ( (x_72 Int) (x_73 Int) ) (= (mem3 x_73 x_72 g_s120_120) (or  (and (= x_73 0) (= x_72 17)) (and (= x_73 1) (= x_72 23)) (and (= x_73 2) (= x_72 29)) (and (= x_73 3) (= x_72 31)) (and (= x_73 4) (= x_72 47)) (and (= x_73 5) (= x_72 89))))))
(define-fun |def_imlprp_90| () Bool (forall ( (x_74 Int) (x_75 Int) ) (= (mem3 x_75 x_74 g_s121_121) (or  (and (= x_75 0) (= x_74 1)) (and (= x_75 1) (= x_74 3)) (and (= x_75 2) (= x_74 5)) (and (= x_75 3) (= x_74 7)) (and (= x_75 4) (= x_74 11)) (and (= x_75 5) (= x_74 13))))))
; PO group s131
(assert (! |def_ctx_0| :named |ctx0|))
(assert (! |def_ctx_1| :named |ctx1|))
(assert (! |def_ctx_2| :named |ctx2|))
(assert (! |def_ctx_3| :named |ctx3|))
(assert (! |def_ctx_4| :named |ctx4|))
(assert (! |def_ctx_5| :named |ctx5|))
(assert (! |def_ctx_6| :named |ctx6|))
(assert (! |def_ctx_7| :named |ctx7|))
(assert (! |def_ctx_8| :named |ctx8|))
(assert (! |def_ctx_9| :named |ctx9|))
(assert (! |def_ctx_10| :named |ctx10|))
(assert (! |def_ctx_11| :named |ctx11|))
(assert (! |def_ctx_12| :named |ctx12|))
(assert (! |def_ctx_13| :named |ctx13|))
(assert (! |def_ctx_14| :named |ctx14|))
(assert (! |def_ctx_15| :named |ctx15|))
(assert (! |def_ctx_16| :named |ctx16|))
(assert (! |def_ctx_17| :named |ctx17|))
; PO 66 in group s131
(assert (! (not (exists ( (x_76 (P (C Int Int))) ) (and (forall ( (x_77 Int) (x_78 Int) ) (= (mem3 x_78 x_77 x_76) (or  (and (= x_78 0) (= x_77 210)) (and (= x_78 1) (= x_77 220)) (and (= x_78 2) (= x_77 230)) (and (= x_78 3) (= x_77 240)) (and (= x_78 4) (= x_77 221)) (and (= x_78 5) (= x_77 231))))) (forall ( (x_79 Int) (x_80 Int) (x_81 Int) ) (=> (and  (mem3 x_79 x_80 x_76) (mem3 x_79 x_81 x_76)) (= x_80 x_81))) (forall ( (x_82 Int) ) (= (and (>= x_82 0) (<= x_82 5)) (exists ( (x_83 Int) ) (mem3 x_82 x_83 x_76)))) (forall ( (x_84 Int) ) (=> (exists ( (x_85 Int) ) (mem3 x_85 x_84 x_76)) (mem0 x_84 g_s2_2)))))) :named goal))
(check-sat)
(exit)
